Route 1: 136 188 142 107 196 28 171 99 94 162 70 46 187 60 30 108 133 16 61 72 24 62 122 92 49 160 117 82 17 7 170 165 58 66 52 105
Route 2: 63 178 167 40 119 166 200 41 177 134 22 78 8 191 150 151 97 31 69 43 181 172 85 88 87 51 163 75 168 154 21 11 36
Route 3: 67 173 39 38 102 98 65 183 3 35 116 15 155 189 47 175 9 89 179 19 186 146 91 197 161 44 54 147 195 156 79 4 23 14
Route 4: 104 137 174 64 198 164 57 113 115 140 26 18 192 131 169 84 27 53 56 185 180 37 121 123 1 124 55 135 176 111 157 34 114 68
Route 5: 144 132 153 10 59 93 118 86 33 77 182 45 13 12 50 32 73 139 100 96 141 103 74 81 130 112 120 95 125 109 152 149 129
Route 6: 42 184 110 6 148 29 2 138 143 128 126 90 25 48 145 127 71 5 193 20 194 80 190 158 101 106 159 83
Route 7: 76 199
Vehicles: 7
Distance: 2596.06
